n_res = 4;
rc = [ 25, 25, 29, 27 ];
n_tasks = 30;
d = [ 8, 3, 5, 4, 7, 10, 2, 3, 1, 4, 8, 3, 7, 6, 7, 10, 5, 4, 6, 1, 8, 10, 7, 10, 3, 9, 1, 10, 8, 1 ];
rr = [| 25, 25, 25, 25, 25, 25, 25, 25, 25, 25, 25, 25, 25, 25, 25, 25, 25, 25, 25, 25, 25, 25, 25, 25, 25, 25, 25, 25, 25, 25
      | 25, 25, 25, 25, 25, 25, 25, 25, 25, 25, 25, 25, 25, 25, 25, 25, 25, 25, 25, 25, 25, 25, 25, 25, 25, 25, 25, 25, 25, 25
      | 29, 29, 29, 29, 29, 29, 29, 29, 29, 29, 29, 29, 29, 29, 29, 29, 29, 29, 29, 29, 29, 29, 29, 29, 29, 29, 29, 29, 29, 29
      | 27, 27, 27, 27, 27, 27, 27, 27, 27, 27, 27, 27, 27, 27, 27, 27, 27, 27, 27, 27, 27, 27, 27, 27, 27, 27, 27, 27, 27, 27|];
suc = [ { 7, 16, 19 },
       { 6, 12, 14 },
       { 4, 11, 27 },
       { 5, 14, 22 },
       { 8 },
       { 18, 27 },
       { 10, 15, 29 },
       { 9, 12 },
       { 10, 13 },
       { 17, 21 },
       { 14, 25 },
       { 20 },
       { 20, 21 },
       { 24, 26 },
       { 18 },
       { 18, 26, 27 },
       { 24 },
       { 22, 24, 25 },
       { 21, 22 },
       { 23 },
       { 28 },
       { 28, 30 },
       { 25, 26 },
       { 30 },
       { 28, 30 },
       { 29 },
       { 29 },
       {  },
       {  },
       {  } ];
